
Log started (V12.6.2.0) Tue Oct 23 23:26:42 2018

Warning: 'End' missing.

Problem 'BKZ20-SVP_n42_seed47.lp' read.
Read time = 0.00 sec. (0.10 ticks)
Number of nonzeros in lower triangle of Q = 861
Using Approximate Minimum Degree ordering
Total time for automatic ordering = 0.00 sec. (0.02 ticks)
Summary statistics for factor of Q:
  Rows in Factor            = 42
  Integer space required    = 42
  Total non-zeros in factor = 903
  Total FP ops to factor    = 25585
Tried aggregator 1 time.
QP Presolve eliminated 0 rows and 10 columns.
Reduced QP has 42 rows, 74 columns, and 628 nonzeros.
Reduced QP objective Q matrix has 42 nonzeros.
Presolve time = 0.00 sec. (0.13 ticks)
Parallel mode: using up to 4 threads for barrier.
Number of nonzeros in lower triangle of A*A' = 861
Using Approximate Minimum Degree ordering
Total time for automatic ordering = 0.00 sec. (0.04 ticks)
Summary statistics for Cholesky factor:
  Threads                   = 4
  Rows in Factor            = 42
  Integer space required    = 42
  Total non-zeros in factor = 903
  Total FP ops to factor    = 25585
 Itn      Primal Obj        Dual Obj  Prim Inf Upper Inf  Dual Inf          
   0   3.3243631e+08  -3.3274031e+08  3.73e+01  1.16e+01  1.89e+08
   1   3.0311860e+07  -2.8826853e+07  1.12e+01  3.48e+00  5.66e+07
   2   1.9607589e+07  -1.7273294e+07  8.96e+00  2.79e+00  4.63e+07
   3   7.7516103e+06  -5.3655664e+06  5.43e+00  1.69e+00  2.85e+07
   4   3.3763947e+06  -5.0851626e+05  3.13e+00  9.75e-01  1.67e+07
   5   1.9190399e+06   9.3585096e+05  1.64e+00  5.11e-01  8.90e+06
   6   1.5502889e+06   1.5416786e+06  4.30e-01  1.34e-01  2.37e+06
   7   1.5963169e+06   1.5750814e+06  4.88e-12  5.20e-15  5.48e-09
   8   1.5918481e+06   1.5916326e+06  1.24e-12  1.17e-14  2.08e-09
   9   1.5917404e+06   1.5917393e+06  8.66e-12  7.99e-15  2.03e-09
  10   1.5917398e+06   1.5917398e+06  1.10e-11  5.25e-15  1.74e-09
  11   1.5917398e+06   1.5917398e+06  2.17e-12  4.80e-15  1.29e-09
Barrier time = 0.01 sec. (0.64 ticks)

Total time on 4 threads = 0.01 sec. (0.64 ticks)

Barrier - Optimal:  Objective =  1.5917398124e+06
Solution time =    0.01 sec.  Iterations = 11
Deterministic time = 0.64 ticks  (70.78 ticks/sec)

